c read Graph
c width = 189
c time = 211 ms
c width = 18
c time = 315 ms
c width = 17
c time = 415 ms
c width = 16
c time = 1861 ms
c width = 15
c time = 12185 ms
c width = 14
c time = 86187 ms
c width = 14
c time = 299895 ms
s td 353 15 415
b 1 17 346
b 2 30 361
b 3 174 176
b 4 135 342 414 415
b 5 112 178 179 362
b 6 107 179 180 181
b 7 9 183 184 185
b 8 136 185 186 189
b 9 90 189 190 192
b 10 111 193 194 196
b 11 65 201 202 208
b 12 102 208 209 213
b 13 152 213 214 216
b 14 103 217 218 219
b 15 96 219 220 223
b 16 63 223 224 231
b 17 12 231 232 237
b 18 60 237 238 239
b 19 21 242 243 245
b 20 6 245 246 247
b 21 118 247 248 250
b 22 28 250 251 252
b 23 1 253 254 255
b 24 69 255 256 257
b 25 83 257 258 259
b 26 138 259 260 262
b 27 79 263 264 268
b 28 7 268 269 270
b 29 132 270 271 274
b 30 62 274 275 277
b 31 47 277 278 280
b 32 39 282 283 288
b 33 41 288 289 292
b 34 53 294 295 297
b 35 162 298 299 300
b 36 71 300 301 308
b 37 153 308 309 315
b 38 57 315 316 319
b 39 146 319 320 323
b 40 148 328 329 337
b 41 165 337 338 341
b 42 120 149 348 349
b 43 69 83 255 257 415
b 44 83 255 257 259 415
b 45 34 181 182 371 372
b 46 4 181 182 183 371 372
b 47 4 181 183 371 372 373
b 48 4 181 183 189 268 274 371 373 377
b 49 4 181 189 213 223 259 268 274 277 308 319 352 357 371 377
b 50 62 181 213 223 259 268 274 277 308 319 352 357 371
b 51 57 62 181 213 223 259 268 308 319 352 355 357 371
b 52 57 181 213 223 259 268 308 319 352 354 355 371
b 53 57 181 213 223 259 268 352 354 370 371
b 54 181 213 217 223 259 268 352 354 368 370
b 55 181 213 216 217 259 268 352 353 354 368
b 56 76 181 213 216 259 268 352 353 368
b 57 76 181 213 216 259 263 268 366 368
b 58 213 216 263 268 366 367 368
b 59 152 213 216 366 367
b 60 79 263 268 367 368
b 61 76 181 259 263 365 366
b 62 76 181 259 262 263 365
b 63 138 181 259 262 365
b 64 82 216 217 353 354
b 65 217 219 223 368 369 370
b 66 96 219 223 369 370
b 67 103 217 219 368 369
b 68 57 308 315 319 354 355
b 69 153 308 315 354 355
b 70 57 62 355 356 357
b 71 4 189 208 213 223 247 259 277 308 319 341 352 357 377 408
b 72 208 213 247 259 341 408 411 412
b 73 247 259 341 342 408 409 411 412
b 74 75 341 342 408 409
b 75 247 252 259 342 409 411 412
b 76 247 250 252 409 410 411
b 77 28 250 252 410 411
b 78 118 247 250 409 410
b 79 252 255 259 342 412 414
b 80 255 259 342 414 415
b 81 252 253 255 412 413 414
b 82 114 252 253 412 413
b 83 1 253 255 413 414
b 84 102 208 213 411 412
b 85 4 189 208 223 247 277 300 308 319 341 352 357 377 407 408
b 86 71 300 308 407 408
b 87 4 65 189 208 223 247 277 300 319 341 352 357 377 406 407
b 88 4 65 189 208 223 247 277 300 319 341 351 352 357 377 406
b 89 4 65 189 201 208 223 247 277 300 319 341 351 357 377 406
b 90 4 189 201 223 231 247 277 300 319 341 351 357 377 378 406
b 91 4 189 201 231 247 277 300 319 323 341 351 357 378 379 406
b 92 4 189 192 201 231 247 277 300 323 341 351 357 379 380 406
b 93 4 192 201 231 247 277 300 323 327 341 351 357 380 384 406
b 94 4 192 201 231 245 247 277 300 327 341 351 357 384 405 406
b 95 6 245 247 405 406
b 96 4 192 201 231 245 277 298 300 327 341 351 357 384 404 405
b 97 162 298 300 404 405
b 98 4 192 201 231 237 245 277 298 327 341 351 357 384 385 404
b 99 4 192 200 201 237 245 277 298 327 341 351 357 385 403 404
b 100 122 200 201 403 404
b 101 4 192 200 237 242 245 277 298 327 341 351 357 385 402 403
b 102 21 242 245 402 403
b 103 4 192 199 200 237 242 277 298 327 341 351 357 385 401 402
b 104 101 199 200 401 402
b 105 4 192 199 237 242 277 297 298 327 341 351 357 385 400 401
b 106 88 297 298 400 401
b 107 4 192 199 237 242 277 297 327 328 341 351 357 385 386 400
b 108 4 165 192 199 237 242 277 297 328 337 341 351 357 386 400
b 109 4 148 165 192 199 237 242 277 297 328 337 351 357 386 400
b 110 4 148 165 192 199 237 242 277 297 351 357 386 398 399 400
b 111 4 148 149 192 199 237 242 277 297 351 357 386 398 399 400
b 112 4 148 149 192 199 237 242 277 297 351 357 386 387 388 398
b 113 4 149 192 199 237 241 242 277 297 351 357 386 387 388 398
b 114 4 120 149 192 199 237 241 277 297 351 357 386 387 388 398
b 115 160 327 328 385 386
b 116 12 231 237 384 385
b 117 323 326 327 380 383 384
b 118 323 325 326 380 382 383
b 119 123 325 326 382 383
b 120 323 324 325 380 381 382
b 121 159 323 324 381 382
b 122 94 324 325 380 381
b 123 144 326 327 383 384
b 124 90 189 192 379 380
b 125 146 319 323 378 379
b 126 63 223 231 377 378
b 127 183 185 189 268 274 373 376 377
b 128 183 185 268 270 274 373 375 376
b 129 183 185 268 270 373 374 375
b 130 9 183 185 374 375
b 131 7 268 270 373 374
b 132 132 270 274 375 376
b 133 136 185 189 376 377
b 134 4 120 149 192 199 237 241 277 280 288 297 351 357 388 398
b 135 4 192 197 199 237 241 277 280 288 297 357 358 388 397 398
b 136 4 192 199 237 241 277 280 288 297 357 358 388 397 398
b 137 197 198 199 357 358 397 398
b 138 121 198 199 397 398
b 139 13 197 198 357 358
b 140 4 167 192 197 237 241 277 280 288 294 297 358 388 397
b 141 167 192 197 237 241 288 292 294 388 392 397
b 142 192 197 288 292 388 390 391 392
b 143 41 288 292 390 391
b 144 192 196 197 388 390 391 392
b 145 192 193 196 388 389 390
b 146 109 192 193 388 389
b 147 111 193 196 389 390
b 148 113 196 197 391 392
b 149 167 237 241 292 294 392 393 394 396 397
b 150 292 293 294 393 394 396 397
b 151 49 292 293 393 394
b 152 104 293 294 396 397
b 153 167 237 239 241 392 393 394 396
b 154 60 237 239 392 393
b 155 167 239 241 394 395 396
b 156 167 239 240 241 394 395
b 157 5 240 241 394 395
b 158 4 167 277 280 294 297 358 360
b 159 4 167 358 359 360
b 160 53 277 280 294 297 360
b 161 47 53 277 280 360
b 162 120 149 280 288 349 351
b 163 120 280 281 288 349 351
b 164 281 282 288 349 350 351
b 165 39 282 288 349 350
b 166 3 281 282 350 351
b 167 138 179 181 364 365
b 168 107 179 181 364 365
b 169 138 179 362 363 364
b 170 112 179 362 363 364
b 171 27 340 341
b 172 338 340 341
b 173 31 339 340
b 174 338 339 340
b 175 59 338 339
b 176 115 336 337
b 177 329 336 337
b 178 98 335 336
b 179 329 335 336
b 180 72 334 335
b 181 329 334 335
b 182 24 333 334
b 183 329 333 334
b 184 87 332 333
b 185 329 332 333
b 186 80 331 332
b 187 329 331 332
b 188 19 330 331
b 189 329 330 331
b 190 131 329 330
b 191 150 322 323
b 192 320 322 323
b 193 51 321 322
b 194 320 321 322
b 195 156 320 321
b 196 61 318 319
b 197 316 318 319
b 198 73 317 318
b 199 316 317 318
b 200 64 316 317
b 201 35 314 315
b 202 309 314 315
b 203 11 313 314
b 204 309 313 314
b 205 67 312 313
b 206 309 312 313
b 207 92 311 312
b 208 309 311 312
b 209 147 310 311
b 210 309 310 311
b 211 68 309 310
b 212 125 307 308
b 213 301 307 308
b 214 26 306 307
b 215 301 306 307
b 216 48 305 306
b 217 301 305 306
b 218 70 304 305
b 219 301 304 305
b 220 171 303 304
b 221 301 303 304
b 222 55 302 303
b 223 301 302 303
b 224 50 301 302
b 225 32 299 300
b 226 99 296 297
b 227 295 296 297
b 228 157 295 296
b 229 8 291 292
b 230 289 291 292
b 231 89 290 291
b 232 289 290 291
b 233 42 289 290
b 234 166 287 288
b 235 283 287 288
b 236 143 286 287
b 237 283 286 287
b 238 139 285 286
b 239 283 285 286
b 240 119 284 285
b 241 283 284 285
b 242 15 283 284
b 243 37 279 280
b 244 278 279 280
b 245 91 278 279
b 246 124 276 277
b 247 275 276 277
b 248 14 275 276
b 249 78 273 274
b 250 271 273 274
b 251 141 272 273
b 252 271 272 273
b 253 158 271 272
b 254 56 269 270
b 255 108 267 268
b 256 264 267 268
b 257 44 266 267
b 258 264 266 267
b 259 38 265 266
b 260 264 265 266
b 261 106 264 265
b 262 164 261 262
b 263 260 261 262
b 264 66 260 261
b 265 117 258 259
b 266 86 256 257
b 267 36 254 255
b 268 163 251 252
b 269 43 249 250
b 270 248 249 250
b 271 25 248 249
b 272 161 246 247
b 273 137 244 245
b 274 243 244 245
b 275 168 243 244
b 276 105 238 239
b 277 129 236 237
b 278 232 236 237
b 279 81 235 236
b 280 232 235 236
b 281 151 234 235
b 282 232 234 235
b 283 128 233 234
b 284 232 233 234
b 285 155 232 233
b 286 46 230 231
b 287 224 230 231
b 288 77 229 230
b 289 224 229 230
b 290 169 228 229
b 291 224 228 229
b 292 110 227 228
b 293 224 227 228
b 294 23 226 227
b 295 224 226 227
b 296 84 225 226
b 297 224 225 226
b 298 142 224 225
b 299 100 222 223
b 300 220 222 223
b 301 127 221 222
b 302 220 221 222
b 303 116 220 221
b 304 93 218 219
b 305 52 215 216
b 306 214 215 216
b 307 126 214 215
b 308 134 212 213
b 309 209 212 213
b 310 74 211 212
b 311 209 211 212
b 312 145 210 211
b 313 209 210 211
b 314 85 209 210
b 315 175 207 208
b 316 202 207 208
b 317 133 206 207
b 318 202 206 207
b 319 2 205 206
b 320 202 205 206
b 321 16 204 205
b 322 202 204 205
b 323 22 203 204
b 324 202 203 204
b 325 20 202 203
b 326 170 195 196
b 327 194 195 196
b 328 140 194 195
b 329 95 191 192
b 330 190 191 192
b 331 173 190 191
b 332 54 188 189
b 333 186 188 189
b 334 33 187 188
b 335 186 187 188
b 336 29 186 187
b 337 10 184 185
b 338 18 180 181
b 339 97 178 362
b 340 149 347 348
b 341 172 347 348
b 342 149 346 347
b 343 45 344 345
b 344 135 344 345
b 345 130 135 345
b 346 58 343 344
b 347 135 343 344
b 348 135 342 343
b 349 154 342 343
b 350 97 361 362
b 351 40 177 178
b 352 97 177 178
b 353 97 176 177
1 342
2 350
3 353
4 348
4 80
5 339
5 170
6 338
6 168
7 337
7 130
8 333
8 133
9 330
9 124
10 327
10 147
11 316
11 89
12 309
12 84
13 306
13 59
14 304
14 67
15 300
15 66
16 287
16 126
17 278
17 116
18 276
18 154
19 274
19 102
20 272
20 95
21 270
21 78
22 268
22 77
23 267
23 83
24 266
24 43
25 265
25 44
26 263
26 63
27 256
27 60
28 254
28 131
29 250
29 132
30 247
30 50
31 244
31 161
32 235
32 165
33 230
33 143
34 227
34 160
35 225
35 97
36 213
36 86
37 202
37 69
38 197
38 68
39 192
39 125
40 177
40 109
41 172
41 108
42 340
42 162
43 44
44 80
45 46
46 47
47 48
48 127
48 49
49 71
49 50
50 51
51 70
51 52
52 68
52 53
53 54
54 55
54 65
55 64
55 56
56 57
57 58
57 61
58 60
58 59
61 62
62 63
63 167
65 66
65 67
68 69
71 85
71 72
72 84
72 73
73 74
73 75
75 79
75 76
76 77
76 78
79 80
79 81
81 83
81 82
85 87
85 86
87 88
88 89
89 90
90 126
90 91
91 125
91 92
92 124
92 93
93 117
93 94
94 96
94 95
96 98
96 97
98 116
98 99
99 101
99 100
101 103
101 102
103 105
103 104
105 107
105 106
107 115
107 108
108 109
109 110
110 111
111 112
112 113
113 114
114 134
117 123
117 118
118 120
118 119
120 122
120 121
127 128
127 133
128 132
128 129
129 131
129 130
134 162
134 136
135 137
135 140
135 136
137 139
137 138
140 158
140 141
141 149
141 142
142 143
142 144
144 145
144 148
145 147
145 146
149 150
149 153
150 152
150 151
153 154
153 155
155 156
156 157
158 160
158 159
160 161
162 163
163 164
164 166
164 165
167 169
167 168
169 170
171 172
172 174
173 174
174 175
176 177
177 179
178 179
179 181
180 181
181 183
182 183
183 185
184 185
185 187
186 187
187 189
188 189
189 190
191 192
192 194
193 194
194 195
196 197
197 199
198 199
199 200
201 202
202 204
203 204
204 206
205 206
206 208
207 208
208 210
209 210
210 211
212 213
213 215
214 215
215 217
216 217
217 219
218 219
219 221
220 221
221 223
222 223
223 224
226 227
227 228
229 230
230 232
231 232
232 233
234 235
235 237
236 237
237 239
238 239
239 241
240 241
241 242
243 244
244 245
246 247
247 248
249 250
250 252
251 252
252 253
255 256
256 258
257 258
258 260
259 260
260 261
262 263
263 264
269 270
270 271
273 274
274 275
277 278
278 280
279 280
280 282
281 282
282 284
283 284
284 285
286 287
287 289
288 289
289 291
290 291
291 293
292 293
293 295
294 295
295 297
296 297
297 298
299 300
300 302
301 302
302 303
305 306
306 307
308 309
309 311
310 311
311 313
312 313
313 314
315 316
316 318
317 318
318 320
319 320
320 322
321 322
322 324
323 324
324 325
326 327
327 328
329 330
330 331
332 333
333 335
334 335
335 336
339 352
339 350
340 342
340 341
343 344
344 347
344 345
346 347
347 348
348 349
351 352
352 353
